36 2000
9 101
10 148
4 142
9 185
11 107
7 157
4 154
10 169
4 130
11 121
4 143
3 142
5 169
5 127
6 131
6 131
11 192
7 129
7 191
10 192
11 107
4 154
8 143
5 107
6 157
10 127
7 148
2 101
7 121
5 176
5 107
11 191
6 129
11 176
8 130
2 185
